NAME: cluster_4
TYPE: TSP
DIMENSION: 11
EDGE_WEIGHT_TYPE: EUC_2D
NODE_COORD_SECTION
1 12000.00 16000.00
2 1040.07 3820.70
3 12081.78 2424.86
4 12825.13 7189.42
5 15331.73 9685.08
6 6787.55 3237.77
7 2591.28 2268.72
8 6420.15 5573.52
9 12188.47 7592.57
10 14704.50 2221.76
11 18201.21 6044.24
EOF
